sat
((rprim_1_1 21))
((rprim_1_2 19))
((rprim_1_3 16))
((rprim_1_4 1))
((rprim_1_5 9))
((rprim_1_6 6))
((rprim_1_7 1))
((rprim_1_8 19))
((rprim_1_9 1))
((rprim_1_10 19))
((rprim_1_11 1))
((rprim_1_12 8))
((rprim_1_13 18))
((rprim_1_14 1))
((rprim_1_15 17))
((rprim_1_16 5))
((rprim_1_17 18))
((rprim_1_18 11))
((rprim_1_19 1))
((rprim_1_20 1))
((rprim_1_21 1))
((rprim_1_22 16))
((rprim_1_23 20))
((rprim_1_24 16))
((rprim_1_25 1))
((rprim_1_26 1))
((rprim_2_1 19))
((rprim_2_2 8))
((rprim_2_3 5))
((rprim_2_4 11))
((rprim_2_5 11))
((rprim_2_6 21))
((rprim_2_7 1))
((rprim_2_8 16))
((rprim_2_9 20))
((rprim_2_10 16))
((rprim_2_11 1))
((rprim_2_12 1))
((rprim_2_13 6))
((rprim_2_14 18))
((rprim_2_15 4))
((rprim_2_16 1))
((rprim_2_17 10))
((rprim_2_18 14))
((rprim_2_19 19))
((rprim_2_20 1))
((rprim_2_21 1))
((rprim_2_22 17))
((rprim_2_23 21))
((rprim_2_24 8))
((rprim_2_25 1))
((rprim_2_26 1))
((rcost_1_1 4.0))
((rcost_1_2 4.0))
((rcost_1_3 4.0))
((rcost_1_4 0.0))
((rcost_1_5 3.0))
((rcost_1_6 3.0))
((rcost_1_7 0.0))
((rcost_1_8 4.0))
((rcost_1_9 0.0))
((rcost_1_10 4.0))
((rcost_1_11 0.0))
((rcost_1_12 3.0))
((rcost_1_13 4.0))
((rcost_1_14 0.0))
((rcost_1_15 4.0))
((rcost_1_16 2.0))
((rcost_1_17 4.0))
((rcost_1_18 3.0))
((rcost_1_19 0.0))
((rcost_1_20 0.0))
((rcost_1_21 0.0))
((rcost_1_22 4.0))
((rcost_1_23 4.0))
((rcost_1_24 4.0))
((rcost_1_25 0.0))
((rcost_1_26 0.0))
((rcost_2_1 4.0))
((rcost_2_2 3.0))
((rcost_2_3 2.0))
((rcost_2_4 3.0))
((rcost_2_5 3.0))
((rcost_2_6 4.0))
((rcost_2_7 0.0))
((rcost_2_8 4.0))
((rcost_2_9 4.0))
((rcost_2_10 4.0))
((rcost_2_11 0.0))
((rcost_2_12 0.0))
((rcost_2_13 3.0))
((rcost_2_14 4.0))
((rcost_2_15 2.0))
((rcost_2_16 0.0))
((rcost_2_17 3.0))
((rcost_2_18 4.0))
((rcost_2_19 4.0))
((rcost_2_20 0.0))
((rcost_2_21 0.0))
((rcost_2_22 4.0))
((rcost_2_23 4.0))
((rcost_2_24 3.0))
((rcost_2_25 0.0))
((rcost_2_26 0.0))
((rx_1_1 11))
((ry_1_1 4))
((rx_1_2 11))
((ry_1_2 1))
((rx_1_3 11))
((ry_1_3 4))
((rx_1_4 9))
((ry_1_4 2))
((rx_1_5 9))
((ry_1_5 2))
((rx_1_6 10))
((ry_1_6 1))
((rx_1_7 11))
((ry_1_7 2))
((rx_1_8 11))
((ry_1_8 2))
((rx_1_9 11))
((ry_1_9 5))
((rx_1_10 11))
((ry_1_10 5))
((rx_1_11 11))
((ry_1_11 8))
((rx_1_12 11))
((ry_1_12 8))
((rx_1_13 10))
((ry_1_13 7))
((rx_1_14 13))
((ry_1_14 7))
((rx_1_15 13))
((ry_1_15 7))
((rx_1_16 15))
((ry_1_16 5))
((rx_1_17 15))
((ry_1_17 6))
((rx_1_18 18))
((ry_1_18 6))
((rx_1_19 18))
((ry_1_19 8))
((rx_1_20 18))
((ry_1_20 8))
((rx_1_21 18))
((ry_1_21 8))
((rx_1_22 18))
((ry_1_22 8))
((rx_1_23 16))
((ry_1_23 6))
((rx_1_24 13))
((ry_1_24 6))
((rx_1_25 11))
((ry_1_25 4))
((rx_1_26 11))
((ry_1_26 4))
((rx_1_27 11))
((ry_1_27 4))
((rx_2_1 8))
((ry_2_1 4))
((rx_2_2 8))
((ry_2_2 7))
((rx_2_3 7))
((ry_2_3 6))
((rx_2_4 7))
((ry_2_4 7))
((rx_2_5 7))
((ry_2_5 9))
((rx_2_6 7))
((ry_2_6 11))
((rx_2_7 7))
((ry_2_7 8))
((rx_2_8 7))
((ry_2_8 8))
((rx_2_9 5))
((ry_2_9 6))
((rx_2_10 2))
((ry_2_10 6))
((rx_2_11 0))
((ry_2_11 4))
((rx_2_12 0))
((ry_2_12 4))
((rx_2_13 0))
((ry_2_13 4))
((rx_2_14 1))
((ry_2_14 5))
((rx_2_15 4))
((ry_2_15 5))
((rx_2_16 3))
((ry_2_16 5))
((rx_2_17 3))
((ry_2_17 5))
((rx_2_18 5))
((ry_2_18 5))
((rx_2_19 7))
((ry_2_19 7))
((rx_2_20 7))
((ry_2_20 10))
((rx_2_21 7))
((ry_2_21 10))
((rx_2_22 7))
((ry_2_22 10))
((rx_2_23 9))
((ry_2_23 8))
((rx_2_24 9))
((ry_2_24 5))
((rx_2_25 8))
((ry_2_25 4))
((rx_2_26 8))
((ry_2_26 4))
((rx_2_27 8))
((ry_2_27 4))
((rechassigned_1_1 0))
((rechassigned_1_2 0))
((rechassigned_1_3 0))
((rechassigned_1_4 0))
((rechassigned_1_5 0))
((rechassigned_1_6 0))
((rechassigned_1_7 0))
((rechassigned_1_8 0))
((rechassigned_1_9 0))
((rechassigned_1_10 0))
((rechassigned_1_11 2))
((rechassigned_1_12 2))
((rechassigned_1_13 0))
((rechassigned_1_14 0))
((rechassigned_1_15 0))
((rechassigned_1_16 2))
((rechassigned_1_17 0))
((rechassigned_1_18 0))
((rechassigned_1_19 0))
((rechassigned_1_20 0))
((rechassigned_1_21 0))
((rechassigned_1_22 0))
((rechassigned_1_23 0))
((rechassigned_1_24 0))
((rechassigned_1_25 2))
((rechassigned_1_26 2))
((rechassigned_1_27 0))
((rechassigned_2_1 0))
((rechassigned_2_2 0))
((rechassigned_2_3 0))
((rechassigned_2_4 0))
((rechassigned_2_5 0))
((rechassigned_2_6 0))
((rechassigned_2_7 1))
((rechassigned_2_8 0))
((rechassigned_2_9 0))
((rechassigned_2_10 0))
((rechassigned_2_11 0))
((rechassigned_2_12 0))
((rechassigned_2_13 0))
((rechassigned_2_14 0))
((rechassigned_2_15 0))
((rechassigned_2_16 0))
((rechassigned_2_17 0))
((rechassigned_2_18 0))
((rechassigned_2_19 0))
((rechassigned_2_20 0))
((rechassigned_2_21 0))
((rechassigned_2_22 0))
((rechassigned_2_23 0))
((rechassigned_2_24 0))
((rechassigned_2_25 1))
((rechassigned_2_26 1))
((rechassigned_2_27 0))
((rechassigned_3_1 0))
((rechassigned_3_2 0))
((rechassigned_3_3 0))
((rechassigned_3_4 0))
((rechassigned_3_5 0))
((rechassigned_3_6 0))
((rechassigned_3_7 0))
((rechassigned_3_8 0))
((rechassigned_3_9 0))
((rechassigned_3_10 0))
((rechassigned_3_11 1))
((rechassigned_3_12 0))
((rechassigned_3_13 0))
((rechassigned_3_14 1))
((rechassigned_3_15 0))
((rechassigned_3_16 0))
((rechassigned_3_17 0))
((rechassigned_3_18 0))
((rechassigned_3_19 0))
((rechassigned_3_20 1))
((rechassigned_3_21 1))
((rechassigned_3_22 0))
((rechassigned_3_23 0))
((rechassigned_3_24 0))
((rechassigned_3_25 0))
((rechassigned_3_26 0))
((rechassigned_3_27 0))
((rechassigned_4_1 0))
((rechassigned_4_2 0))
((rechassigned_4_3 0))
((rechassigned_4_4 0))
((rechassigned_4_5 0))
((rechassigned_4_6 0))
((rechassigned_4_7 2))
((rechassigned_4_8 0))
((rechassigned_4_9 0))
((rechassigned_4_10 0))
((rechassigned_4_11 0))
((rechassigned_4_12 0))
((rechassigned_4_13 0))
((rechassigned_4_14 0))
((rechassigned_4_15 0))
((rechassigned_4_16 0))
((rechassigned_4_17 0))
((rechassigned_4_18 0))
((rechassigned_4_19 0))
((rechassigned_4_20 2))
((rechassigned_4_21 2))
((rechassigned_4_22 0))
((rechassigned_4_23 0))
((rechassigned_4_24 0))
((rechassigned_4_25 0))
((rechassigned_4_26 0))
((rechassigned_4_27 0))
((total_rcost 0))
((lastrech_1_20 false))
((lastrech_1_21 false))
((lastrech_1_22 false))
((lastrech_1_23 false))
((lastrech_1_24 false))
((lastrech_1_25 true))
((lastrech_2_20 false))
((lastrech_2_21 false))
((lastrech_2_22 false))
((lastrech_2_23 false))
((lastrech_2_24 false))
((lastrech_2_25 true))
((lastrech_3_20 true))
((lastrech_3_21 false))
((lastrech_3_22 false))
((lastrech_3_23 false))
((lastrech_3_24 false))
((lastrech_3_25 false))
((lastrech_4_20 true))
((lastrech_4_21 false))
((lastrech_4_22 false))
((lastrech_4_23 false))
((lastrech_4_24 false))
((lastrech_4_25 false))
